experiment/data/hgs-res/Vrp-Set-X-n157/Vrp-Set-X-n157-hgs/0.hgs1.vrp
NAME : 0
COMMENT : CVRP Instance
TYPE : CVRP
DIMENSION : 157
EDGE_WEIGHT_TYPE : EUC_2D
CAPACITY : 12
NODE_COORD_SECTION
1	769.0	259.0
2	91.0	377.0
3	108.0	338.0
4	816.0	567.0
5	725.0	520.0
6	117.0	357.0
7	766.0	559.0
8	90.0	417.0
9	255.0	430.0
10	63.0	384.0
11	35.0	276.0
12	122.0	318.0
13	85.0	322.0
14	267.0	348.0
15	937.0	546.0
16	865.0	461.0
17	863.0	547.0
18	724.0	431.0
19	148.0	144.0
20	243.0	571.0
21	871.0	512.0
22	782.0	596.0
23	77.0	272.0
24	776.0	650.0
25	166.0	371.0
26	69.0	239.0
27	972.0	607.0
28	320.0	521.0
29	91.0	434.0
30	20.0	305.0
31	81.0	271.0
32	776.0	669.0
33	830.0	553.0
34	148.0	243.0
35	160.0	202.0
36	741.0	527.0
37	877.0	561.0
38	587.0	551.0
39	808.0	435.0
40	26.0	278.0
41	58.0	394.0
42	755.0	444.0
43	817.0	557.0
44	165.0	367.0
45	216.0	510.0
46	124.0	330.0
47	96.0	587.0
48	132.0	369.0
49	163.0	234.0
50	915.0	492.0
51	753.0	657.0
52	161.0	319.0
53	37.0	227.0
54	898.0	747.0
55	770.0	524.0
56	745.0	582.0
57	695.0	469.0
58	124.0	355.0
59	11.0	283.0
60	258.0	406.0
61	72.0	335.0
62	713.0	399.0
63	866.0	626.0
64	214.0	344.0
65	213.0	349.0
66	864.0	577.0
67	98.0	440.0
68	701.0	512.0
69	884.0	559.0
70	842.0	518.0
71	125.0	379.0
72	352.0	410.0
73	206.0	228.0
74	825.0	592.0
75	93.0	252.0
76	863.0	511.0
77	98.0	347.0
78	115.0	326.0
79	71.0	392.0
80	96.0	248.0
81	65.0	404.0
82	75.0	342.0
83	140.0	300.0
84	129.0	340.0
85	129.0	273.0
86	846.0	696.0
87	109.0	463.0
88	863.0	586.0
89	139.0	356.0
90	77.0	351.0
91	154.0	322.0
92	231.0	323.0
93	115.0	394.0
94	844.0	558.0
95	98.0	454.0
96	739.0	568.0
97	179.0	443.0
98	862.0	618.0
99	764.0	764.0
100	844.0	554.0
101	174.0	319.0
102	703.0	319.0
103	151.0	453.0
104	863.0	569.0
105	72.0	473.0
106	632.0	575.0
107	823.0	578.0
108	26.0	42.0
109	47.0	381.0
110	71.0	336.0
111	754.0	484.0
112	137.0	465.0
113	80.0	355.0
114	172.0	296.0
115	28.0	310.0
116	754.0	579.0
117	531.0	662.0
118	87.0	382.0
119	866.0	481.0
120	93.0	337.0
121	942.0	567.0
122	788.0	567.0
123	824.0	451.0
124	926.0	901.0
125	182.0	500.0
126	98.0	384.0
127	104.0	370.0
128	48.0	462.0
129	952.0	629.0
130	239.0	324.0
131	138.0	516.0
132	747.0	605.0
133	136.0	460.0
134	748.0	624.0
135	43.0	268.0
136	792.0	597.0
137	95.0	352.0
138	109.0	413.0
139	67.0	224.0
140	104.0	386.0
141	817.0	672.0
142	183.0	360.0
143	922.0	652.0
144	779.0	419.0
145	863.0	721.0
146	40.0	456.0
147	66.0	395.0
148	862.0	465.0
149	383.0	357.0
150	307.0	434.0
151	233.0	421.0
152	329.0	280.0
153	623.0	554.0
154	103.0	349.0
155	736.0	688.0
156	75.0	266.0
157	174.0	406.0
DEMAND_SECTION
1	0
2	1
3	1
4	1
5	1
6	1
7	1
8	1
9	1
10	1
11	1
12	1
13	1
14	1
15	1
16	1
17	1
18	1
19	1
20	1
21	1
22	1
23	1
24	1
25	1
26	1
27	1
28	1
29	1
30	1
31	1
32	1
33	1
34	1
35	1
36	1
37	1
38	1
39	1
40	1
41	1
42	1
43	1
44	1
45	1
46	1
47	1
48	1
49	1
50	1
51	1
52	1
53	1
54	1
55	1
56	1
57	1
58	1
59	1
60	1
61	1
62	1
63	1
64	1
65	1
66	1
67	1
68	1
69	1
70	1
71	1
72	1
73	1
74	1
75	1
76	1
77	1
78	1
79	1
80	1
81	1
82	1
83	1
84	1
85	1
86	1
87	1
88	1
89	1
90	1
91	1
92	1
93	1
94	1
95	1
96	1
97	1
98	1
99	1
100	1
101	1
102	1
103	1
104	1
105	1
106	1
107	1
108	1
109	1
110	1
111	1
112	1
113	1
114	1
115	1
116	1
117	1
118	1
119	1
120	1
121	1
122	1
123	1
124	1
125	1
126	1
127	1
128	1
129	1
130	1
131	1
132	1
133	1
134	1
135	1
136	1
137	1
138	1
139	1
140	1
141	1
142	1
143	1
144	1
145	1
146	1
147	1
148	1
149	1
150	1
151	1
152	1
153	1
154	1
155	1
156	1
157	1
DEPOT_SECTION
1
-1
EOF
