experiment/data/hgs-res/Vrp-Set-X-n157/Vrp-Set-X-n157-hgs/0.hgs1.log
=========== Algorithm Parameters =================
---- nbGranular        is set to 20
---- mu                is set to 25
---- lambda            is set to 40
---- nbElite           is set to 4
---- nbClose           is set to 5
---- targetFeasible    is set to 0.2
---- seed              is set to 1234
---- nbIter            is set to 20000
---- timeLimit         is set to 0
---- useSwapStar       is set to 1
==================================================
----- READING INSTANCE: baseline_results/cvrp_hgs/Vrp-Set-X-n157/Vrp-Set-X-n157-hgs/0.hgs1.vrp
----- FLEET SIZE WAS NOT SPECIFIED: DEFAULT INITIALIZATION TO 20 VEHICLES
----- INSTANCE SUCCESSFULLY LOADED WITH 156 CLIENTS AND 20 VEHICLES
----- BUILDING INITIAL POPULATION
----- STARTING GENETIC ALGORITHM
It      0      2 | T(s) 0.22 | Feas 60 16994.80 17159.52 | NO-INFEASIBLE | Div 0.42 -1.00 | Feas 1.00 1.00 | Pen 850.00 0.85
It    500    124 | T(s) 0.89 | Feas 61 16911.86 16928.27 | Inf 61 17224.36 17279.77 | Div 0.25 0.29 | Feas 0.66 1.00 | Pen 377.15 0.38
It   1000    338 | T(s) 1.54 | Feas 44 16897.85 16924.78 | Inf 30 16979.56 17030.28 | Div 0.26 0.33 | Feas 0.55 1.00 | Pen 167.34 0.17
It   1500    838 | T(s) 2.26 | Feas 32 16897.85 16935.59 | Inf 28 16816.10 16917.82 | Div 0.29 0.37 | Feas 0.38 1.00 | Pen 104.83 0.10
It   2000    163 | T(s) 3.09 | Feas 34 16894.40 16923.74 | Inf 65 16847.57 16866.53 | Div 0.28 0.23 | Feas 0.18 1.00 | Pen 109.06 0.10
It   2500    663 | T(s) 3.89 | Feas 41 16894.40 16916.41 | Inf 42 17017.35 17149.38 | Div 0.26 0.31 | Feas 0.00 1.00 | Pen 113.47 0.10
It   3000    374 | T(s) 4.75 | Feas 34 16892.41 16919.10 | Inf 46 17082.32 17234.75 | Div 0.27 0.30 | Feas 0.00 1.00 | Pen 118.05 0.10
It   3500    874 | T(s) 5.62 | Feas 51 16892.41 16910.93 | Inf 35 16811.96 16890.36 | Div 0.25 0.36 | Feas 0.35 1.00 | Pen 104.40 0.10
It   4000   1374 | T(s) 6.46 | Feas 50 16892.41 16909.61 | Inf 27 17105.29 17263.24 | Div 0.24 0.35 | Feas 0.14 1.00 | Pen 130.34 0.10
It   4500   1874 | T(s) 7.25 | Feas 40 16892.41 16913.90 | Inf 32 16887.56 17027.90 | Div 0.26 0.37 | Feas 0.42 1.00 | Pen 113.00 0.10
It   5000   2374 | T(s) 8.14 | Feas 38 16892.41 16920.42 | Inf 34 16948.46 17034.08 | Div 0.28 0.35 | Feas 0.25 1.00 | Pen 117.57 0.10
It   5500     38 | T(s) 8.98 | Feas 55 16891.79 16910.15 | Inf 46 16802.65 16858.23 | Div 0.23 0.31 | Feas 0.41 1.00 | Pen 103.97 0.10
It   6000    274 | T(s) 9.84 | Feas 63 16885.27 16905.04 | Inf 35 17083.19 17201.02 | Div 0.21 0.31 | Feas 0.09 1.00 | Pen 129.80 0.10
It   6500    774 | T(s) 10.63 | Feas 40 16885.27 16901.41 | Inf 44 16835.41 16858.34 | Div 0.20 0.16 | Feas 0.22 1.00 | Pen 110.33 0.10
It   7000   1274 | T(s) 11.41 | Feas 48 16885.27 16902.03 | Inf 39 17100.21 17127.93 | Div 0.20 0.16 | Feas 0.15 1.00 | Pen 132.40 0.10
It   7500   1774 | T(s) 12.26 | Feas 27 16885.27 16913.08 | Inf 57 17099.12 17205.27 | Div 0.26 0.31 | Feas 0.00 1.00 | Pen 117.09 0.10
It   8000   2274 | T(s) 13.10 | Feas 38 16885.27 16901.70 | Inf 43 16792.22 16864.14 | Div 0.21 0.34 | Feas 0.34 1.00 | Pen 103.54 0.10
It   8500   2774 | T(s) 13.93 | Feas 45 16885.27 16903.82 | Inf 39 17118.27 17258.52 | Div 0.20 0.25 | Feas 0.04 1.00 | Pen 129.27 0.10
It   9000   3274 | T(s) 14.73 | Feas 40 16885.27 16897.25 | Inf 29 16528.06 16732.37 | Div 0.18 0.34 | Feas 0.28 1.00 | Pen 95.27 0.10
It   9500   3774 | T(s) 15.65 | Feas 32 16885.27 16904.52 | Inf 60 17063.66 17189.03 | Div 0.22 0.27 | Feas 0.00 1.00 | Pen 118.94 0.10
It  10000     73 | T(s) 16.50 | Feas 59 16885.13 16896.50 | Inf 38 16787.73 16848.41 | Div 0.17 0.29 | Feas 0.38 1.00 | Pen 105.18 0.10
It  10500    573 | T(s) 17.30 | Feas 57 16885.13 16905.75 | Inf 25 17100.24 17225.20 | Div 0.19 0.28 | Feas 0.15 1.00 | Pen 131.32 0.10
It  11000   1073 | T(s) 18.11 | Feas 38 16885.13 16900.04 | Inf 64 16488.91 16667.04 | Div 0.19 0.28 | Feas 0.35 1.00 | Pen 96.78 0.10
It  11500   1573 | T(s) 19.00 | Feas 56 16885.13 16903.36 | Inf 43 17102.46 17227.56 | Div 0.17 0.26 | Feas 0.00 1.00 | Pen 120.82 0.10
It  12000   2073 | T(s) 19.81 | Feas 29 16885.13 16913.34 | Inf 58 16806.59 16870.16 | Div 0.25 0.28 | Feas 0.42 1.00 | Pen 106.85 0.10
It  12500   2573 | T(s) 20.63 | Feas 60 16885.13 16894.72 | Inf 60 16860.54 16877.52 | Div 0.15 0.16 | Feas 0.23 1.00 | Pen 111.16 0.10
It  13000   3073 | T(s) 21.47 | Feas 42 16885.13 16902.68 | Inf 34 17027.30 17211.19 | Div 0.20 0.31 | Feas 0.00 1.00 | Pen 115.66 0.10
It  13500   3573 | T(s) 22.35 | Feas 50 16885.13 16894.38 | Inf 43 16760.83 16810.29 | Div 0.15 0.26 | Feas 0.26 1.00 | Pen 102.28 0.10
It  14000   4073 | T(s) 23.20 | Feas 47 16885.13 16903.24 | Inf 43 17103.49 17252.02 | Div 0.21 0.25 | Feas 0.01 1.00 | Pen 127.69 0.10
It  14500   4573 | T(s) 23.98 | Feas 47 16885.13 16895.97 | Inf 35 16501.69 16662.17 | Div 0.17 0.19 | Feas 0.27 1.00 | Pen 94.10 0.10
It  15000   5073 | T(s) 24.83 | Feas 38 16885.13 16895.89 | Inf 33 16586.73 16730.52 | Div 0.17 0.30 | Feas 0.41 1.00 | Pen 97.91 0.10
It  15500   5573 | T(s) 25.71 | Feas 29 16885.13 16900.05 | Inf 55 17032.32 17240.82 | Div 0.20 0.24 | Feas 0.00 1.00 | Pen 122.23 0.10
It  16000   6073 | T(s) 26.53 | Feas 41 16885.13 16894.36 | Inf 28 16831.47 16945.20 | Div 0.14 0.34 | Feas 0.44 1.00 | Pen 108.10 0.10
It  16500   6573 | T(s) 27.33 | Feas 26 16885.13 16901.20 | Inf 48 16847.50 16867.02 | Div 0.21 0.20 | Feas 0.20 1.00 | Pen 110.26 0.10
It  17000   7073 | T(s) 28.10 | Feas 44 16885.13 16892.93 | Inf 53 16574.98 16700.64 | Div 0.13 0.20 | Feas 0.34 1.00 | Pen 97.51 0.10
It  17500   7573 | T(s) 28.98 | Feas 30 16885.13 16901.92 | Inf 32 17169.52 17320.26 | Div 0.20 0.27 | Feas 0.00 1.00 | Pen 121.73 0.10
It  18000   8073 | T(s) 29.75 | Feas 50 16885.13 16895.43 | Inf 28 16838.68 16943.83 | Div 0.15 0.35 | Feas 0.45 1.00 | Pen 107.65 0.10
It  18500   8573 | T(s) 30.55 | Feas 61 16885.13 16893.48 | Inf 57 16838.08 16853.89 | Div 0.14 0.18 | Feas 0.17 1.00 | Pen 109.81 0.10
It  19000   9073 | T(s) 31.36 | Feas 38 16885.13 16897.80 | Inf 30 16908.61 16972.18 | Div 0.17 0.32 | Feas 0.23 1.00 | Pen 114.24 0.10
It  19500   9573 | T(s) 32.21 | Feas 43 16885.13 16896.88 | Inf 26 16736.76 16856.35 | Div 0.17 0.38 | Feas 0.31 1.00 | Pen 101.03 0.10
It  20000  10073 | T(s) 33.08 | Feas 37 16885.13 16899.03 | Inf 49 17102.68 17260.65 | Div 0.17 0.25 | Feas 0.00 1.00 | Pen 126.13 0.10
It  20500  10573 | T(s) 33.84 | Feas 44 16885.13 16891.99 | Inf 63 16823.70 16847.22 | Div 0.13 0.14 | Feas 0.17 1.00 | Pen 109.36 0.10
It  21000  11073 | T(s) 34.62 | Feas 64 16885.13 16892.05 | Inf 35 16516.95 16670.73 | Div 0.11 0.25 | Feas 0.26 1.00 | Pen 94.81 0.10
It  21500  11573 | T(s) 35.54 | Feas 51 16885.13 16898.07 | Inf 31 17152.40 17346.28 | Div 0.18 0.34 | Feas 0.01 1.00 | Pen 118.37 0.10
It  22000  12073 | T(s) 36.36 | Feas 53 16885.13 16896.19 | Inf 52 16772.15 16837.67 | Div 0.15 0.29 | Feas 0.36 1.00 | Pen 104.68 0.10
It  22500  12573 | T(s) 37.15 | Feas 60 16885.13 16894.81 | Inf 29 17103.26 17233.90 | Div 0.16 0.31 | Feas 0.15 1.00 | Pen 130.69 0.10
It  23000  13073 | T(s) 38.00 | Feas 42 16885.13 16912.09 | Inf 64 17020.58 17165.77 | Div 0.20 0.27 | Feas 0.00 1.00 | Pen 115.58 0.10
It  23500  13573 | T(s) 38.82 | Feas 56 16885.13 16890.41 | Inf 50 16750.34 16801.17 | Div 0.09 0.25 | Feas 0.32 1.00 | Pen 102.21 0.10
It  24000  14073 | T(s) 39.62 | Feas 49 16885.13 16900.46 | Inf 55 17097.24 17243.78 | Div 0.17 0.22 | Feas 0.03 1.00 | Pen 127.61 0.10
It  24500  14573 | T(s) 40.43 | Feas 41 16885.13 16892.36 | Inf 37 16854.17 16880.09 | Div 0.13 0.24 | Feas 0.22 1.00 | Pen 110.63 0.10
It  25000  15073 | T(s) 41.19 | Feas 49 16885.13 16890.58 | Inf 65 16329.71 16597.82 | Div 0.08 0.26 | Feas 0.32 1.00 | Pen 95.92 0.10
It  25500  15573 | T(s) 42.05 | Feas 41 16885.13 16899.07 | Inf 49 17001.45 17176.32 | Div 0.19 0.28 | Feas 0.00 1.00 | Pen 119.75 0.10
It  26000  16073 | T(s) 42.82 | Feas 47 16885.13 16893.73 | Inf 31 16804.32 16904.96 | Div 0.15 0.35 | Feas 0.42 1.00 | Pen 105.90 0.10
It  26500  16573 | T(s) 43.78 | Feas 60 16885.13 16895.22 | Inf 54 16846.59 16858.99 | Div 0.15 0.15 | Feas 0.19 1.00 | Pen 110.18 0.10
It  27000  17073 | T(s) 44.69 | Feas 41 16885.13 16892.44 | Inf 31 16930.96 16996.52 | Div 0.12 0.31 | Feas 0.25 1.00 | Pen 114.63 0.10
It  27500  17573 | T(s) 45.65 | Feas 43 16885.13 16890.03 | Inf 27 16740.91 16831.35 | Div 0.09 0.31 | Feas 0.26 1.00 | Pen 101.37 0.10
It  28000  18073 | T(s) 46.48 | Feas 38 16885.13 16896.27 | Inf 64 17084.74 17222.44 | Div 0.15 0.21 | Feas 0.02 1.00 | Pen 126.56 0.10
It  28500  18573 | T(s) 47.33 | Feas 65 16885.13 16889.23 | Inf 50 16451.52 16579.49 | Div 0.07 0.23 | Feas 0.26 1.00 | Pen 93.27 0.10
It  29000  19073 | T(s) 48.30 | Feas 34 16885.13 16896.97 | Inf 38 17052.52 17206.88 | Div 0.17 0.30 | Feas 0.00 1.00 | Pen 116.45 0.10
It  29500  19573 | T(s) 49.31 | Feas 51 16885.13 16890.54 | Inf 25 16978.80 17042.83 | Div 0.09 0.30 | Feas 0.24 1.00 | Pen 121.15 0.10
----- GENETIC ALGORITHM FINISHED AFTER 29929 ITERATIONS. TIME SPENT: 50.1465
----- WRITING BEST SOLUTION IN : baseline_results/cvrp_hgs/Vrp-Set-X-n157/Vrp-Set-X-n157-hgs/0.hgs1.tour
